Route 1: 0 21 69 39 46 44 86 0
Route 2: 0 41 81 34 16 100 98 2 99 0
Route 3: 0 66 31 60 1 82 95 36 0
Route 4: 0 43 18 96 87 56 78 61 54 0
Route 5: 0 14 49 75 38 58 73 7 0
Route 6: 0 19 67 83 52 9 74 77 48 68 85 0
Route 7: 0 17 55 70 15 32 71 30 5 90 72 12 8 0
Route 8: 0 53 92 25 20 42 37 0
Route 9: 0 47 24 51 4 28 64 45 84 0
Route 10: 0 40 57 26 79 35 50 11 33 88 93 0
Route 11: 0 23 29 10 91 13 65 6 59 76 63 27 3 0
Route 12: 0 80 97 94 62 89 22 0
